db/data/71887816324431776529794322169604615.z3.out
-------------------
2500.118965587
